n_skills = 12;
n_workers = 9;
has_skills = [{6}, {9}, {11, 12}, {10, 11, 12}, {1, 2, 3, 4, 5, 6}, {7, 8, 9, 12}, {6, 9}, {2, 3}, {4, 5, 6}];
n_tasks = 30;
d = [3, 3, 2, 3, 3, 4, 3, 3, 2, 3, 2, 3, 2, 4, 2, 4, 5, 1, 2, 3, 4, 3, 1, 1, 2, 4, 1, 1, 1, 1];
rr = [| 0, 0, 0, 1, 0, 0, 0, 0, 0, 0, 0, 0, 0, 0, 0, 0, 0, 0, 0, 0, 0, 0, 0, 0, 0, 0, 0, 0, 0, 0
      | 1, 0, 0, 0, 0, 0, 1, 0, 0, 0, 0, 0, 0, 0, 0, 0, 0, 0, 0, 0, 0, 1, 0, 1, 0, 0, 0, 0, 0, 0
      | 0, 0, 0, 0, 0, 0, 0, 1, 0, 0, 0, 1, 0, 0, 0, 0, 0, 0, 0, 0, 1, 0, 0, 0, 0, 0, 0, 0, 0, 0
      | 0, 0, 0, 0, 0, 1, 0, 0, 0, 0, 0, 0, 0, 0, 0, 0, 0, 0, 0, 0, 0, 0, 0, 0, 0, 0, 0, 0, 0, 0
      | 0, 0, 0, 0, 0, 0, 0, 0, 0, 0, 0, 0, 0, 0, 0, 0, 0, 0, 0, 0, 0, 0, 0, 0, 0, 0, 0, 1, 0, 1
      | 1, 0, 0, 0, 1, 0, 0, 0, 0, 1, 1, 0, 0, 1, 1, 0, 0, 1, 1, 1, 0, 0, 1, 1, 0, 1, 1, 0, 0, 0
      | 0, 0, 0, 0, 0, 1, 1, 0, 0, 0, 1, 0, 0, 0, 0, 0, 0, 0, 0, 0, 0, 0, 0, 0, 0, 0, 0, 0, 0, 0
      | 0, 0, 0, 1, 0, 0, 0, 0, 0, 0, 0, 1, 1, 0, 0, 1, 1, 0, 1, 0, 0, 0, 0, 0, 0, 0, 1, 0, 0, 0
      | 1, 0, 0, 0, 0, 1, 0, 0, 0, 0, 0, 1, 1, 0, 0, 1, 0, 0, 0, 1, 0, 0, 1, 0, 1, 0, 1, 0, 0, 0
      | 0, 1, 0, 0, 1, 0, 0, 0, 0, 1, 0, 0, 0, 0, 1, 0, 0, 0, 0, 0, 0, 1, 0, 0, 0, 0, 0, 0, 0, 0
      | 0, 1, 1, 0, 0, 0, 0, 0, 1, 1, 0, 0, 0, 0, 0, 0, 1, 0, 0, 0, 1, 0, 0, 1, 0, 1, 0, 1, 1, 1
      | 0, 0, 0, 0, 0, 0, 0, 0, 0, 0, 0, 0, 1, 0, 0, 0, 0, 0, 0, 0, 0, 0, 0, 0, 0, 0, 0, 0, 0, 0 |];
suc = [{7, 26}, {4, 5, 6}, {8, 11, 18}, {7, 8, 22}, {10, 19}, {19, 24}, {9, 13, 20}, {9, 20}, {12, 14, 27}, {11, 14, 16}, {23}, {15, 17}, {15, 28, 29}, {15}, {30}, {21}, {29}, {19, 24, 25}, {27, 28}, {29}, {22, 23}, {30}, {24, 25, 28}, {26}, {26}, {27}, {30}, {}, {}, {}];

maxMakeSpan = 33;

% 1.) Work with some other agent
workTogether =   [{1,2}, {3,4}, {1,3}, {2,4,6}, {7,8},{7,9}];
scWorkTogether = [    1,     2,     3,       4,     5,    6];

% 2.) Do not work with other agent
workNotTogether =   [{1,4}, {2,3}, {1,9}, {2,4,8}];
scWorkNotTogether = [    7,     8,     9,      10];

% 3.) Work on certain task preferably
desiredTaskWorkers = [5,   6,  7,  8];
desiredTasks =       [17,  3,  4,  2];
scDesireds =         [11, 12, 13, 14];

% 4.) Do not work on a certain task preferably  
avoidedTaskWorkers = [1,   1,  6];
avoidedTasks =       [2,   3, 19];
scAvoideds =         [15, 16, 17];

crTempEdges = [| 3, 1 |
                 2, 3 |
                 2, 4 |
                 4, 1 |
                 1, 6 |
                 1, 7 |
                 8, 3 |
                10, 4 |
                12, 4 |
                15, 1 |
                16, 15 |
                12, 17 |];